(set-logic QF_BV)
(declare-fun _substvar_737_ () (_ BitVec 16))
(declare-fun _substvar_218_ () (_ BitVec 8))
(declare-fun _substvar_670_ () (_ BitVec 8))
(declare-fun _substvar_1118_ () (_ BitVec 32))
(declare-fun _substvar_730_ () (_ BitVec 8))
(declare-fun _substvar_739_ () (_ BitVec 16))
(assert (let ((?v_16 ((_ zero_extend 24) _substvar_218_))) (let ( (?v_17 ((_ zero_extend 24) _substvar_730_))) (let ( (?v_8 ((_ zero_extend 16) _substvar_737_)) (?v_2 ((_ zero_extend 16) _substvar_739_))) (let ((?v_4 (bvadd (bvadd (_ bv0 32) (_ bv1582332 32)) ?v_2))) (let ((?v_6 (bvadd ?v_4 (_ bv6 32)))) (let ((?v_14 (bvadd (bvadd ?v_6 (_ bv0 32)) (_ bv2 32)))) (let ((?v_13 (bvadd ?v_14 ?v_8))) (let ((?v_19 (bvadd ?v_13 (_ bv6 32)))) (let ((?v_25 (bvadd ?v_19 (_ bv0 32)))) (let ((?v_15 (bvadd ?v_25 (_ bv2 32)))) (let ((?v_29 (bvadd ?v_15 ?v_16))) (let ((?v_31 (bvadd (bvadd ?v_29 (_ bv1 32)) ?v_17))) (let ((?v_5 (bvadd (bvadd (_ bv0 32) (_ bv1582341 32)) ?v_2))) (let ((?v_20 (bvadd (bvadd (bvadd (bvadd ?v_5 (_ bv15 32)) (_ bv0 32)) (_ bv2 32)) ?v_8))) (and true true true true (= _substvar_737_ (bvor (_ bv0 16) ((_ zero_extend 8) _substvar_670_))) true true (bvsle (_ bv1040 32) (bvsub (bvadd (bvadd (bvadd (bvadd (bvadd (bvadd ?v_20 (_ bv7 32)) _substvar_1118_) (_ bv3 32)) ?v_16) (_ bv0 32)) ?v_17) (_ bv1582144 32))) true true true true true true (bvule (bvsub ?v_5 (_ bv1582312 32)) (_ bv846 32)) true true true true true true true true true true true true true true true true true true true true true true (= _substvar_1118_ (_ bv1 32)) true true true true true true (bvule (bvadd ?v_31 (_ bv2 32)) (_ bv1583158 32)) true true true true))))))))))))))))
(check-sat)
(exit)
